p cnf 962 2469
51 -2 -1 0
-51 2 0
-51 1 0
52 -51 -3 0
-52 51 0
-52 3 0
53 -5 -695 0
-53 5 0
-53 695 0
54 -53 -6 0
-54 53 0
-54 6 0
55 -696 -697 0
-55 696 0
-55 697 0
56 -698 -699 0
-56 698 0
-56 699 0
57 -56 -8 0
-57 56 0
-57 8 0
58 -700 -55 0
-58 700 0
-58 55 0
59 -701 -702 0
-59 701 0
-59 702 0
60 -59 -703 0
-60 59 0
-60 703 0
61 -704 -58 0
-61 704 0
-61 58 0
62 -705 -9 0
-62 705 0
-62 9 0
63 -62 -706 0
-63 62 0
-63 706 0
64 -707 -61 0
-64 707 0
-64 61 0
65 -708 -13 0
-65 708 0
-65 13 0
66 -65 -5 0
-66 65 0
-66 5 0
67 -709 -64 0
-67 709 0
-67 64 0
68 -710 -711 0
-68 710 0
-68 711 0
69 -68 -6 0
-69 68 0
-69 6 0
70 -712 -67 0
-70 712 0
-70 67 0
71 -713 -714 0
-71 713 0
-71 714 0
72 -71 -715 0
-72 71 0
-72 715 0
73 -716 -70 0
-73 716 0
-73 70 0
74 -18 -10 0
-74 18 0
-74 10 0
75 -74 -717 0
-75 74 0
-75 717 0
76 -718 -73 0
-76 718 0
-76 73 0
77 -719 -720 0
-77 719 0
-77 720 0
78 -77 -23 0
-78 77 0
-78 23 0
79 -721 -76 0
-79 721 0
-79 76 0
80 -24 -702 0
-80 24 0
-80 702 0
81 -80 -722 0
-81 80 0
-81 722 0
82 -723 -79 0
-82 723 0
-82 79 0
83 -26 -719 0
-83 26 0
-83 719 0
84 -83 -27 0
-84 83 0
-84 27 0
85 -724 -82 0
-85 724 0
-85 82 0
86 -22 -695 0
-86 22 0
-86 695 0
87 -86 -28 0
-87 86 0
-87 28 0
88 -725 -85 0
-88 725 0
-88 85 0
89 -722 -14 0
-89 722 0
-89 14 0
90 -89 -726 0
-90 89 0
-90 726 0
91 -727 -88 0
-91 727 0
-91 88 0
92 -29 -16 0
-92 29 0
-92 16 0
93 -92 -3 0
-93 92 0
-93 3 0
94 -728 -91 0
-94 728 0
-94 91 0
95 -729 -711 0
-95 729 0
-95 711 0
96 -95 -31 0
-96 95 0
-96 31 0
97 -730 -94 0
-97 730 0
-97 94 0
98 -731 -715 0
-98 731 0
-98 715 0
99 -98 -732 0
-99 98 0
-99 732 0
100 -733 -97 0
-100 733 0
-100 97 0
101 -734 -3 0
-101 734 0
-101 3 0
102 -101 -735 0
-102 101 0
-102 735 0
103 -736 -100 0
-103 736 0
-103 100 0
104 -25 -698 0
-104 25 0
-104 698 0
105 -104 -735 0
-105 104 0
-105 735 0
106 -737 -103 0
-106 737 0
-106 103 0
107 -35 -720 0
-107 35 0
-107 720 0
108 -107 -732 0
-108 107 0
-108 732 0
109 -738 -106 0
-109 738 0
-109 106 0
110 -739 -24 0
-110 739 0
-110 24 0
111 -110 -732 0
-111 110 0
-111 732 0
112 -740 -109 0
-112 740 0
-112 109 0
113 -37 -21 0
-113 37 0
-113 21 0
114 -113 -741 0
-114 113 0
-114 741 0
115 -742 -112 0
-115 742 0
-115 112 0
116 -713 -743 0
-116 713 0
-116 743 0
117 -116 -19 0
-117 116 0
-117 19 0
118 -744 -115 0
-118 744 0
-118 115 0
119 -745 -719 0
-119 745 0
-119 719 0
120 -119 -40 0
-120 119 0
-120 40 0
121 -746 -118 0
-121 746 0
-121 118 0
122 -747 -21 0
-122 747 0
-122 21 0
123 -122 -35 0
-123 122 0
-123 35 0
124 -748 -121 0
-124 748 0
-124 121 0
125 -21 -14 0
-125 21 0
-125 14 0
126 -125 -34 0
-126 125 0
-126 34 0
127 -749 -124 0
-127 749 0
-127 124 0
128 -743 -702 0
-128 743 0
-128 702 0
129 -128 -40 0
-129 128 0
-129 40 0
130 -750 -127 0
-130 750 0
-130 127 0
131 -30 -714 0
-131 30 0
-131 714 0
132 -131 -39 0
-132 131 0
-132 39 0
133 -751 -130 0
-133 751 0
-133 130 0
134 -752 -753 0
-134 752 0
-134 753 0
135 -134 -44 0
-135 134 0
-135 44 0
136 -754 -133 0
-136 754 0
-136 133 0
137 -755 -13 0
-137 755 0
-137 13 0
138 -137 -45 0
-138 137 0
-138 45 0
139 -756 -136 0
-139 756 0
-139 136 0
140 -30 -21 0
-140 30 0
-140 21 0
141 -140 -18 0
-141 140 0
-141 18 0
142 -757 -139 0
-142 757 0
-142 139 0
143 -46 -711 0
-143 46 0
-143 711 0
144 -143 -705 0
-144 143 0
-144 705 0
145 -758 -142 0
-145 758 0
-145 142 0
146 -22 -17 0
-146 22 0
-146 17 0
147 -146 -33 0
-147 146 0
-147 33 0
148 -759 -145 0
-148 759 0
-148 145 0
149 -753 -30 0
-149 753 0
-149 30 0
150 -149 -17 0
-150 149 0
-150 17 0
151 -760 -148 0
-151 760 0
-151 148 0
152 -34 -10 0
-152 34 0
-152 10 0
153 -152 -7 0
-153 152 0
-153 7 0
154 -761 -151 0
-154 761 0
-154 151 0
155 -45 -762 0
-155 45 0
-155 762 0
156 -155 -31 0
-156 155 0
-156 31 0
157 -763 -154 0
-157 763 0
-157 154 0
158 -38 -762 0
-158 38 0
-158 762 0
159 -158 -764 0
-159 158 0
-159 764 0
160 -765 -157 0
-160 765 0
-160 157 0
161 -739 -722 0
-161 739 0
-161 722 0
162 -161 -766 0
-162 161 0
-162 766 0
163 -767 -160 0
-163 767 0
-163 160 0
164 -25 -714 0
-164 25 0
-164 714 0
165 -164 -713 0
-165 164 0
-165 713 0
166 -768 -163 0
-166 768 0
-166 163 0
167 -41 -715 0
-167 41 0
-167 715 0
168 -167 -706 0
-168 167 0
-168 706 0
169 -769 -166 0
-169 769 0
-169 166 0
170 -770 -771 0
-170 770 0
-170 771 0
171 -170 -764 0
-171 170 0
-171 764 0
172 -772 -169 0
-172 772 0
-172 169 0
173 -41 -773 0
-173 41 0
-173 773 0
174 -173 -774 0
-174 173 0
-174 774 0
175 -775 -172 0
-175 775 0
-175 172 0
176 -38 -731 0
-176 38 0
-176 731 0
177 -176 -745 0
-177 176 0
-177 745 0
178 -776 -175 0
-178 776 0
-178 175 0
179 -708 -3 0
-179 708 0
-179 3 0
180 -179 -6 0
-180 179 0
-180 6 0
181 -777 -178 0
-181 777 0
-181 178 0
182 -5 -778 0
-182 5 0
-182 778 0
183 -182 -715 0
-183 182 0
-183 715 0
184 -779 -181 0
-184 779 0
-184 181 0
185 -19 -764 0
-185 19 0
-185 764 0
186 -185 -732 0
-186 185 0
-186 732 0
187 -780 -184 0
-187 780 0
-187 184 0
188 -729 -714 0
-188 729 0
-188 714 0
189 -188 -5 0
-189 188 0
-189 5 0
190 -781 -187 0
-190 781 0
-190 187 0
191 -771 -34 0
-191 771 0
-191 34 0
192 -191 -732 0
-192 191 0
-192 732 0
193 -782 -190 0
-193 782 0
-193 190 0
194 -49 -3 0
-194 49 0
-194 3 0
195 -194 -735 0
-195 194 0
-195 735 0
196 -783 -193 0
-196 783 0
-196 193 0
197 -784 -762 0
-197 784 0
-197 762 0
198 -197 -25 0
-198 197 0
-198 25 0
199 -785 -196 0
-199 785 0
-199 196 0
200 -30 -786 0
-200 30 0
-200 786 0
201 -200 -698 0
-201 200 0
-201 698 0
202 -787 -199 0
-202 787 0
-202 199 0
203 -38 -722 0
-203 38 0
-203 722 0
204 -203 -7 0
-204 203 0
-204 7 0
205 -788 -202 0
-205 788 0
-205 202 0
206 -766 -9 0
-206 766 0
-206 9 0
207 -206 -33 0
-207 206 0
-207 33 0
208 -789 -205 0
-208 789 0
-208 205 0
209 -5 -706 0
-209 5 0
-209 706 0
210 -209 -35 0
-210 209 0
-210 35 0
211 -790 -208 0
-211 790 0
-211 208 0
212 -791 -10 0
-212 791 0
-212 10 0
213 -212 -792 0
-213 212 0
-213 792 0
214 -793 -211 0
-214 793 0
-214 211 0
215 -729 -710 0
-215 729 0
-215 710 0
216 -215 -752 0
-216 215 0
-216 752 0
217 -794 -214 0
-217 794 0
-217 214 0
218 -731 -15 0
-218 731 0
-218 15 0
219 -218 -47 0
-219 218 0
-219 47 0
220 -795 -217 0
-220 795 0
-220 217 0
221 -796 -18 0
-221 796 0
-221 18 0
222 -221 -40 0
-222 221 0
-222 40 0
223 -797 -220 0
-223 797 0
-223 220 0
224 -18 -698 0
-224 18 0
-224 698 0
225 -224 -705 0
-225 224 0
-225 705 0
226 -798 -223 0
-226 798 0
-226 223 0
227 -92 -773 0
-227 92 0
-227 773 0
228 -799 -226 0
-228 799 0
-228 226 0
229 -699 -4 0
-229 699 0
-229 4 0
230 -229 -18 0
-230 229 0
-230 18 0
231 -800 -228 0
-231 800 0
-231 228 0
232 -30 -701 0
-232 30 0
-232 701 0
233 -232 -28 0
-233 232 0
-233 28 0
234 -801 -231 0
-234 801 0
-234 231 0
235 -802 -702 0
-235 802 0
-235 702 0
236 -235 -786 0
-236 235 0
-236 786 0
237 -803 -234 0
-237 803 0
-237 234 0
238 -745 -773 0
-238 745 0
-238 773 0
239 -238 -792 0
-239 238 0
-239 792 0
240 -804 -237 0
-240 804 0
-240 237 0
241 -42 -21 0
-241 42 0
-241 21 0
242 -241 -36 0
-242 241 0
-242 36 0
243 -805 -240 0
-243 805 0
-243 240 0
244 -806 -698 0
-244 806 0
-244 698 0
245 -244 -19 0
-245 244 0
-245 19 0
246 -807 -243 0
-246 807 0
-246 243 0
247 -32 -722 0
-247 32 0
-247 722 0
248 -247 -23 0
-248 247 0
-248 23 0
249 -808 -246 0
-249 808 0
-249 246 0
250 -36 -729 0
-250 36 0
-250 729 0
251 -250 -770 0
-251 250 0
-251 770 0
252 -809 -249 0
-252 809 0
-252 249 0
253 -38 -755 0
-253 38 0
-253 755 0
254 -253 -735 0
-254 253 0
-254 735 0
255 -810 -252 0
-255 810 0
-255 252 0
256 -811 -734 0
-256 811 0
-256 734 0
257 -256 -812 0
-257 256 0
-257 812 0
258 -813 -255 0
-258 813 0
-258 255 0
259 -791 -24 0
-259 791 0
-259 24 0
260 -259 -713 0
-260 259 0
-260 713 0
261 -814 -258 0
-261 814 0
-261 258 0
262 -796 -720 0
-262 796 0
-262 720 0
263 -262 -43 0
-263 262 0
-263 43 0
264 -815 -261 0
-264 815 0
-264 261 0
265 -806 -695 0
-265 806 0
-265 695 0
266 -265 -35 0
-266 265 0
-266 35 0
267 -816 -264 0
-267 816 0
-267 264 0
268 -44 -5 0
-268 44 0
-268 5 0
269 -268 -774 0
-269 268 0
-269 774 0
270 -817 -267 0
-270 817 0
-270 267 0
271 -28 -1 0
-271 28 0
-271 1 0
272 -271 -792 0
-272 271 0
-272 792 0
273 -818 -270 0
-273 818 0
-273 270 0
274 -774 -711 0
-274 774 0
-274 711 0
275 -274 -31 0
-275 274 0
-275 31 0
276 -819 -273 0
-276 819 0
-276 273 0
277 -44 -714 0
-277 44 0
-277 714 0
278 -277 -39 0
-278 277 0
-278 39 0
279 -820 -276 0
-279 820 0
-279 276 0
280 -747 -28 0
-280 747 0
-280 28 0
281 -280 -39 0
-281 280 0
-281 39 0
282 -821 -279 0
-282 821 0
-282 279 0
283 -26 -713 0
-283 26 0
-283 713 0
284 -283 -19 0
-284 283 0
-284 19 0
285 -822 -282 0
-285 822 0
-285 282 0
286 -21 -717 0
-286 21 0
-286 717 0
287 -286 -774 0
-287 286 0
-287 774 0
288 -823 -285 0
-288 823 0
-288 285 0
289 -729 -703 0
-289 729 0
-289 703 0
290 -289 -47 0
-290 289 0
-290 47 0
291 -824 -288 0
-291 824 0
-291 288 0
292 -46 -720 0
-292 46 0
-292 720 0
293 -292 -40 0
-293 292 0
-293 40 0
294 -825 -291 0
-294 825 0
-294 291 0
295 -710 -4 0
-295 710 0
-295 4 0
296 -295 -774 0
-296 295 0
-296 774 0
297 -826 -294 0
-297 826 0
-297 294 0
298 -8 -773 0
-298 8 0
-298 773 0
299 -298 -33 0
-299 298 0
-299 33 0
300 -827 -297 0
-300 827 0
-300 297 0
301 -37 -14 0
-301 37 0
-301 14 0
302 -301 -741 0
-302 301 0
-302 741 0
303 -828 -300 0
-303 828 0
-303 300 0
304 -44 -42 0
-304 44 0
-304 42 0
305 -304 -8 0
-305 304 0
-305 8 0
306 -829 -303 0
-306 829 0
-306 303 0
307 -10 -698 0
-307 10 0
-307 698 0
308 -307 -774 0
-308 307 0
-308 774 0
309 -830 -306 0
-309 830 0
-309 306 0
310 -80 -703 0
-310 80 0
-310 703 0
311 -831 -309 0
-311 831 0
-311 309 0
312 -41 -802 0
-312 41 0
-312 802 0
313 -312 -40 0
-313 312 0
-313 40 0
314 -832 -311 0
-314 832 0
-314 311 0
315 -695 -778 0
-315 695 0
-315 778 0
316 -315 -32 0
-316 315 0
-316 32 0
317 -833 -314 0
-317 833 0
-317 314 0
318 -15 -786 0
-318 15 0
-318 786 0
319 -318 -739 0
-319 318 0
-319 739 0
320 -834 -317 0
-320 834 0
-320 317 0
321 -27 -710 0
-321 27 0
-321 710 0
322 -321 -739 0
-322 321 0
-322 739 0
323 -835 -320 0
-323 835 0
-323 320 0
324 -719 -14 0
-324 719 0
-324 14 0
325 -324 -38 0
-325 324 0
-325 38 0
326 -836 -323 0
-326 836 0
-326 323 0
327 -747 -714 0
-327 747 0
-327 714 0
328 -327 -32 0
-328 327 0
-328 32 0
329 -837 -326 0
-329 837 0
-329 326 0
330 -29 -13 0
-330 29 0
-330 13 0
331 -330 -31 0
-331 330 0
-331 31 0
332 -838 -329 0
-332 838 0
-332 329 0
333 -45 -812 0
-333 45 0
-333 812 0
334 -333 -715 0
-334 333 0
-334 715 0
335 -839 -332 0
-335 839 0
-335 332 0
336 -739 -4 0
-336 739 0
-336 4 0
337 -336 -3 0
-337 336 0
-337 3 0
338 -840 -335 0
-338 840 0
-338 335 0
339 -4 -706 0
-339 4 0
-339 706 0
340 -339 -766 0
-340 339 0
-340 766 0
341 -841 -338 0
-341 841 0
-341 338 0
342 -710 -9 0
-342 710 0
-342 9 0
343 -342 -802 0
-343 342 0
-343 802 0
344 -842 -341 0
-344 842 0
-344 341 0
345 -42 -13 0
-345 42 0
-345 13 0
346 -345 -752 0
-346 345 0
-346 752 0
347 -843 -344 0
-347 843 0
-347 344 0
348 -27 -26 0
-348 27 0
-348 26 0
349 -348 -28 0
-349 348 0
-349 28 0
350 -844 -347 0
-350 844 0
-350 347 0
351 -4 -2 0
-351 4 0
-351 2 0
352 -351 -47 0
-352 351 0
-352 47 0
353 -845 -350 0
-353 845 0
-353 350 0
354 -46 -2 0
-354 46 0
-354 2 0
355 -354 -745 0
-355 354 0
-355 745 0
356 -846 -353 0
-356 846 0
-356 353 0
357 -50 -743 0
-357 50 0
-357 743 0
358 -357 -3 0
-358 357 0
-358 3 0
359 -847 -356 0
-359 847 0
-359 356 0
360 -791 -706 0
-360 791 0
-360 706 0
361 -360 -31 0
-361 360 0
-361 31 0
362 -848 -359 0
-362 848 0
-362 359 0
363 -14 -4 0
-363 14 0
-363 4 0
364 -363 -849 0
-364 363 0
-364 849 0
365 -850 -362 0
-365 850 0
-365 362 0
366 -741 -26 0
-366 741 0
-366 26 0
367 -366 -40 0
-367 366 0
-367 40 0
368 -851 -365 0
-368 851 0
-368 365 0
369 -729 -778 0
-369 729 0
-369 778 0
370 -369 -762 0
-370 369 0
-370 762 0
371 -852 -368 0
-371 852 0
-371 368 0
372 -37 -30 0
-372 37 0
-372 30 0
373 -372 -23 0
-373 372 0
-373 23 0
374 -853 -371 0
-374 853 0
-374 371 0
375 -764 -2 0
-375 764 0
-375 2 0
376 -375 -774 0
-376 375 0
-376 774 0
377 -854 -374 0
-377 854 0
-377 374 0
378 -30 -13 0
-378 30 0
-378 13 0
379 -378 -708 0
-379 378 0
-379 708 0
380 -855 -377 0
-380 855 0
-380 377 0
381 -701 -1 0
-381 701 0
-381 1 0
382 -381 -699 0
-382 381 0
-382 699 0
383 -856 -380 0
-383 856 0
-383 380 0
384 -784 -695 0
-384 784 0
-384 695 0
385 -384 -17 0
-385 384 0
-385 17 0
386 -857 -383 0
-386 857 0
-386 383 0
387 -811 -786 0
-387 811 0
-387 786 0
388 -387 -8 0
-388 387 0
-388 8 0
389 -858 -386 0
-389 858 0
-389 386 0
390 -720 -4 0
-390 720 0
-390 4 0
391 -390 -40 0
-391 390 0
-391 40 0
392 -859 -389 0
-392 859 0
-392 389 0
393 -19 -1 0
-393 19 0
-393 1 0
394 -393 -8 0
-394 393 0
-394 8 0
395 -860 -392 0
-395 860 0
-395 392 0
396 -50 -747 0
-396 50 0
-396 747 0
397 -396 -699 0
-397 396 0
-397 699 0
398 -861 -395 0
-398 861 0
-398 395 0
399 -28 -16 0
-399 28 0
-399 16 0
400 -399 -39 0
-400 399 0
-400 39 0
401 -862 -398 0
-401 862 0
-401 398 0
402 -42 -778 0
-402 42 0
-402 778 0
403 -402 -2 0
-403 402 0
-403 2 0
404 -863 -401 0
-404 863 0
-404 401 0
405 -729 -715 0
-405 729 0
-405 715 0
406 -405 -40 0
-406 405 0
-406 40 0
407 -864 -404 0
-407 864 0
-407 404 0
408 -41 -806 0
-408 41 0
-408 806 0
409 -408 -766 0
-409 408 0
-409 766 0
410 -865 -407 0
-410 865 0
-410 407 0
411 -711 -13 0
-411 711 0
-411 13 0
412 -411 -34 0
-412 411 0
-412 34 0
413 -866 -410 0
-413 866 0
-413 410 0
414 -324 -732 0
-414 324 0
-414 732 0
415 -867 -413 0
-415 867 0
-415 413 0
416 -50 -722 0
-416 50 0
-416 722 0
417 -416 -771 0
-417 416 0
-417 771 0
418 -868 -415 0
-418 868 0
-418 415 0
419 -24 -16 0
-419 24 0
-419 16 0
420 -419 -701 0
-420 419 0
-420 701 0
421 -869 -418 0
-421 869 0
-421 418 0
422 -796 -729 0
-422 796 0
-422 729 0
423 -422 -43 0
-423 422 0
-423 43 0
424 -870 -421 0
-424 870 0
-424 421 0
425 -42 -34 0
-425 42 0
-425 34 0
426 -425 -23 0
-426 425 0
-426 23 0
427 -871 -424 0
-427 871 0
-427 424 0
428 -711 -695 0
-428 711 0
-428 695 0
429 -428 -44 0
-429 428 0
-429 44 0
430 -872 -427 0
-430 872 0
-430 427 0
431 -43 -26 0
-431 43 0
-431 26 0
432 -431 -44 0
-432 431 0
-432 44 0
433 -873 -430 0
-433 873 0
-433 430 0
434 -15 -8 0
-434 15 0
-434 8 0
435 -434 -735 0
-435 434 0
-435 735 0
436 -874 -433 0
-436 874 0
-436 433 0
437 -715 -15 0
-437 715 0
-437 15 0
438 -437 -47 0
-438 437 0
-438 47 0
439 -875 -436 0
-439 875 0
-439 436 0
440 -766 -16 0
-440 766 0
-440 16 0
441 -440 -33 0
-441 440 0
-441 33 0
442 -876 -439 0
-442 876 0
-442 439 0
443 -711 -708 0
-443 711 0
-443 708 0
444 -443 -12 0
-444 443 0
-444 12 0
445 -877 -442 0
-445 877 0
-445 442 0
446 -45 -734 0
-446 45 0
-446 734 0
447 -446 -731 0
-447 446 0
-447 731 0
448 -878 -445 0
-448 878 0
-448 445 0
449 -753 -802 0
-449 753 0
-449 802 0
450 -449 -45 0
-450 449 0
-450 45 0
451 -879 -448 0
-451 879 0
-451 448 0
452 -39 -726 0
-452 39 0
-452 726 0
453 -452 -33 0
-453 452 0
-453 33 0
454 -880 -451 0
-454 880 0
-454 451 0
455 -753 -36 0
-455 753 0
-455 36 0
456 -455 -713 0
-456 455 0
-456 713 0
457 -881 -454 0
-457 881 0
-457 454 0
458 -745 -735 0
-458 745 0
-458 735 0
459 -458 -40 0
-459 458 0
-459 40 0
460 -882 -457 0
-460 882 0
-460 457 0
461 -811 -739 0
-461 811 0
-461 739 0
462 -461 -715 0
-462 461 0
-462 715 0
463 -883 -460 0
-463 883 0
-463 460 0
464 -45 -701 0
-464 45 0
-464 701 0
465 -464 -699 0
-465 464 0
-465 699 0
466 -884 -463 0
-466 884 0
-466 463 0
467 -42 -743 0
-467 42 0
-467 743 0
468 -467 -31 0
-468 467 0
-468 31 0
469 -885 -466 0
-469 885 0
-469 466 0
470 -726 -7 0
-470 726 0
-470 7 0
471 -470 -5 0
-471 470 0
-471 5 0
472 -886 -469 0
-472 886 0
-472 469 0
473 -32 -25 0
-473 32 0
-473 25 0
474 -473 -48 0
-474 473 0
-474 48 0
475 -887 -472 0
-475 887 0
-475 472 0
476 -235 -699 0
-476 235 0
-476 699 0
477 -888 -475 0
-477 888 0
-477 475 0
478 -37 -711 0
-478 37 0
-478 711 0
479 -478 -731 0
-479 478 0
-479 731 0
480 -889 -477 0
-480 889 0
-480 477 0
481 -747 -37 0
-481 747 0
-481 37 0
482 -481 -33 0
-482 481 0
-482 33 0
483 -890 -480 0
-483 890 0
-483 480 0
484 -753 -21 0
-484 753 0
-484 21 0
485 -484 -25 0
-485 484 0
-485 25 0
486 -891 -483 0
-486 891 0
-486 483 0
487 -37 -29 0
-487 37 0
-487 29 0
488 -487 -849 0
-488 487 0
-488 849 0
489 -892 -486 0
-489 892 0
-489 486 0
490 -43 -14 0
-490 43 0
-490 14 0
491 -490 -731 0
-491 490 0
-491 731 0
492 -893 -489 0
-492 893 0
-492 489 0
493 -26 -743 0
-493 26 0
-493 743 0
494 -493 -770 0
-494 493 0
-494 770 0
495 -894 -492 0
-495 894 0
-495 492 0
496 -710 -705 0
-496 710 0
-496 705 0
497 -496 -717 0
-497 496 0
-497 717 0
498 -895 -495 0
-498 895 0
-498 495 0
499 -752 -806 0
-499 752 0
-499 806 0
500 -499 -717 0
-500 499 0
-500 717 0
501 -896 -498 0
-501 896 0
-501 498 0
502 -714 -695 0
-502 714 0
-502 695 0
503 -502 -734 0
-503 502 0
-503 734 0
504 -897 -501 0
-504 897 0
-504 501 0
505 -812 -773 0
-505 812 0
-505 773 0
506 -505 -8 0
-506 505 0
-506 8 0
507 -898 -504 0
-507 898 0
-507 504 0
508 -45 -24 0
-508 45 0
-508 24 0
509 -508 -49 0
-509 508 0
-509 49 0
510 -899 -507 0
-510 899 0
-510 507 0
511 -25 -17 0
-511 25 0
-511 17 0
512 -511 -36 0
-512 511 0
-512 36 0
513 -900 -510 0
-513 900 0
-513 510 0
514 -770 -762 0
-514 770 0
-514 762 0
515 -514 -745 0
-515 514 0
-515 745 0
516 -901 -513 0
-516 901 0
-516 513 0
517 -812 -17 0
-517 812 0
-517 17 0
518 -517 -32 0
-518 517 0
-518 32 0
519 -902 -516 0
-519 902 0
-519 516 0
520 -719 -2 0
-520 719 0
-520 2 0
521 -520 -773 0
-521 520 0
-521 773 0
522 -903 -519 0
-522 903 0
-522 519 0
523 -11 -9 0
-523 11 0
-523 9 0
524 -523 -20 0
-524 523 0
-524 20 0
525 -904 -522 0
-525 904 0
-525 522 0
526 -29 -719 0
-526 29 0
-526 719 0
527 -526 -14 0
-527 526 0
-527 14 0
528 -905 -525 0
-528 905 0
-528 525 0
529 -762 -11 0
-529 762 0
-529 11 0
530 -529 -745 0
-530 529 0
-530 745 0
531 -906 -528 0
-531 906 0
-531 528 0
532 -722 -11 0
-532 722 0
-532 11 0
533 -532 -32 0
-533 532 0
-533 32 0
534 -907 -531 0
-534 907 0
-534 531 0
535 -745 -715 0
-535 745 0
-535 715 0
536 -535 -31 0
-536 535 0
-536 31 0
537 -908 -534 0
-537 908 0
-537 534 0
538 -770 -812 0
-538 770 0
-538 812 0
539 -538 -745 0
-539 538 0
-539 745 0
540 -909 -537 0
-540 909 0
-540 537 0
541 -34 -26 0
-541 34 0
-541 26 0
542 -541 -48 0
-542 541 0
-542 48 0
543 -910 -540 0
-543 910 0
-543 540 0
544 -38 -34 0
-544 38 0
-544 34 0
545 -544 -766 0
-545 544 0
-545 766 0
546 -911 -543 0
-546 911 0
-546 543 0
547 -726 -708 0
-547 726 0
-547 708 0
548 -547 -739 0
-548 547 0
-548 739 0
549 -912 -546 0
-549 912 0
-549 546 0
550 -708 -703 0
-550 708 0
-550 703 0
551 -550 -39 0
-551 550 0
-551 39 0
552 -913 -549 0
-552 913 0
-552 549 0
553 -752 -711 0
-553 752 0
-553 711 0
554 -553 -771 0
-554 553 0
-554 771 0
555 -914 -552 0
-555 914 0
-555 552 0
556 -45 -15 0
-556 45 0
-556 15 0
557 -556 -722 0
-557 556 0
-557 722 0
558 -915 -555 0
-558 915 0
-558 555 0
559 -56 -44 0
-559 56 0
-559 44 0
560 -916 -558 0
-560 916 0
-560 558 0
561 -27 -743 0
-561 27 0
-561 743 0
562 -561 -774 0
-562 561 0
-562 774 0
563 -917 -560 0
-563 917 0
-563 560 0
564 -753 -701 0
-564 753 0
-564 701 0
565 -564 -28 0
-565 564 0
-565 28 0
566 -918 -563 0
-566 918 0
-566 563 0
567 -747 -30 0
-567 747 0
-567 30 0
568 -567 -14 0
-568 567 0
-568 14 0
569 -919 -566 0
-569 919 0
-569 566 0
570 -747 -778 0
-570 747 0
-570 778 0
571 -570 -726 0
-571 570 0
-571 726 0
572 -920 -569 0
-572 920 0
-572 569 0
573 -713 -778 0
-573 713 0
-573 778 0
574 -573 -715 0
-574 573 0
-574 715 0
575 -921 -572 0
-575 921 0
-575 572 0
576 -24 -778 0
-576 24 0
-576 778 0
577 -576 -753 0
-577 576 0
-577 753 0
578 -922 -575 0
-578 922 0
-578 575 0
579 -44 -29 0
-579 44 0
-579 29 0
580 -579 -849 0
-580 579 0
-580 849 0
581 -923 -578 0
-581 923 0
-581 578 0
582 -43 -8 0
-582 43 0
-582 8 0
583 -582 -849 0
-583 582 0
-583 849 0
584 -924 -581 0
-584 924 0
-584 581 0
585 -711 -9 0
-585 711 0
-585 9 0
586 -585 -36 0
-586 585 0
-586 36 0
587 -925 -584 0
-587 925 0
-587 584 0
588 -45 -4 0
-588 45 0
-588 4 0
589 -588 -19 0
-589 588 0
-589 19 0
590 -926 -587 0
-590 926 0
-590 587 0
591 -747 -729 0
-591 747 0
-591 729 0
592 -591 -745 0
-592 591 0
-592 745 0
593 -927 -590 0
-593 927 0
-593 590 0
594 -705 -6 0
-594 705 0
-594 6 0
595 -594 -33 0
-595 594 0
-595 33 0
596 -928 -593 0
-596 928 0
-596 593 0
597 -42 -10 0
-597 42 0
-597 10 0
598 -597 -699 0
-598 597 0
-598 699 0
599 -929 -596 0
-599 929 0
-599 596 0
600 -36 -762 0
-600 36 0
-600 762 0
601 -600 -39 0
-601 600 0
-601 39 0
602 -930 -599 0
-602 930 0
-602 599 0
603 -48 -16 0
-603 48 0
-603 16 0
604 -603 -40 0
-604 603 0
-604 40 0
605 -931 -602 0
-605 931 0
-605 602 0
606 -34 -706 0
-606 34 0
-606 706 0
607 -606 -849 0
-607 606 0
-607 849 0
608 -932 -605 0
-608 932 0
-608 605 0
609 -47 -743 0
-609 47 0
-609 743 0
610 -609 -764 0
-610 609 0
-610 764 0
611 -933 -608 0
-611 933 0
-611 608 0
612 -17 -11 0
-612 17 0
-612 11 0
613 -612 -770 0
-613 612 0
-613 770 0
614 -934 -611 0
-614 934 0
-614 611 0
615 -56 -32 0
-615 56 0
-615 32 0
616 -935 -614 0
-616 935 0
-616 614 0
617 -806 -16 0
-617 806 0
-617 16 0
618 -617 -812 0
-618 617 0
-618 812 0
619 -936 -616 0
-619 936 0
-619 616 0
620 -755 -702 0
-620 755 0
-620 702 0
621 -620 -796 0
-621 620 0
-621 796 0
622 -937 -619 0
-622 937 0
-622 619 0
623 -708 -743 0
-623 708 0
-623 743 0
624 -623 -734 0
-624 623 0
-624 734 0
625 -938 -622 0
-625 938 0
-625 622 0
626 -752 -741 0
-626 752 0
-626 741 0
627 -626 -705 0
-627 626 0
-627 705 0
628 -939 -625 0
-628 939 0
-628 625 0
629 -95 -741 0
-629 95 0
-629 741 0
630 -940 -628 0
-630 940 0
-630 628 0
631 -47 -796 0
-631 47 0
-631 796 0
632 -631 -33 0
-632 631 0
-632 33 0
633 -941 -630 0
-633 941 0
-633 630 0
634 -13 -7 0
-634 13 0
-634 7 0
635 -634 -732 0
-635 634 0
-635 732 0
636 -942 -633 0
-636 942 0
-636 633 0
637 -729 -24 0
-637 729 0
-637 24 0
638 -637 -2 0
-638 637 0
-638 2 0
639 -943 -636 0
-639 943 0
-639 636 0
640 -771 -710 0
-640 771 0
-640 710 0
641 -640 -745 0
-641 640 0
-641 745 0
642 -944 -639 0
-642 944 0
-642 639 0
643 -26 -2 0
-643 26 0
-643 2 0
644 -643 -732 0
-644 643 0
-644 732 0
645 -945 -642 0
-645 945 0
-645 642 0
646 -637 -703 0
-646 637 0
-646 703 0
647 -946 -645 0
-647 946 0
-647 645 0
648 -37 -3 0
-648 37 0
-648 3 0
649 -648 -8 0
-649 648 0
-649 8 0
650 -947 -647 0
-650 947 0
-650 647 0
651 -784 -9 0
-651 784 0
-651 9 0
652 -651 -745 0
-652 651 0
-652 745 0
653 -948 -650 0
-653 948 0
-653 650 0
654 -762 -10 0
-654 762 0
-654 10 0
655 -654 -774 0
-655 654 0
-655 774 0
656 -949 -653 0
-656 949 0
-656 653 0
657 -15 -10 0
-657 15 0
-657 10 0
658 -657 -29 0
-658 657 0
-658 29 0
659 -950 -656 0
-659 950 0
-659 656 0
660 -713 -710 0
-660 713 0
-660 710 0
661 -660 -717 0
-661 660 0
-661 717 0
662 -951 -659 0
-662 951 0
-662 659 0
663 -720 -3 0
-663 720 0
-663 3 0
664 -663 -23 0
-664 663 0
-664 23 0
665 -952 -662 0
-665 952 0
-665 662 0
666 -46 -44 0
-666 46 0
-666 44 0
667 -666 -39 0
-667 666 0
-667 39 0
668 -953 -665 0
-668 953 0
-668 665 0
669 -43 -743 0
-669 43 0
-669 743 0
670 -669 -5 0
-670 669 0
-670 5 0
671 -954 -668 0
-671 954 0
-671 668 0
672 -49 -24 0
-672 49 0
-672 24 0
673 -672 -23 0
-673 672 0
-673 23 0
674 -955 -671 0
-674 955 0
-674 671 0
675 -45 -19 0
-675 45 0
-675 19 0
676 -675 -717 0
-676 675 0
-676 717 0
677 -956 -674 0
-677 956 0
-677 674 0
678 -734 -778 0
-678 734 0
-678 778 0
679 -678 -40 0
-679 678 0
-679 40 0
680 -957 -677 0
-680 957 0
-680 677 0
681 -307 -20 0
-681 307 0
-681 20 0
682 -958 -680 0
-682 958 0
-682 680 0
683 -812 -713 0
-683 812 0
-683 713 0
684 -683 -47 0
-684 683 0
-684 47 0
685 -959 -682 0
-685 959 0
-685 682 0
686 -39 -705 0
-686 39 0
-686 705 0
687 -686 -40 0
-687 686 0
-687 40 0
688 -960 -685 0
-688 960 0
-688 685 0
689 -812 -786 0
-689 812 0
-689 786 0
690 -689 -20 0
-690 689 0
-690 20 0
691 -961 -688 0
-691 961 0
-691 688 0
692 -715 -714 0
-692 715 0
-692 714 0
693 -692 -706 0
-693 692 0
-693 706 0
694 -962 -691 0
-694 962 0
-694 691 0
-695 -4 0
695 4 0
-696 -54 0
696 54 0
-697 -52 0
697 52 0
-698 -7 0
698 7 0
-699 -5 0
699 5 0
-700 -57 0
700 57 0
-701 -10 0
701 10 0
-702 -9 0
702 9 0
-703 -11 0
703 11 0
-704 -60 0
704 60 0
-705 -12 0
705 12 0
-706 -3 0
706 3 0
-707 -63 0
707 63 0
-708 -14 0
708 14 0
-709 -66 0
709 66 0
-710 -16 0
710 16 0
-711 -15 0
711 15 0
-712 -69 0
712 69 0
-713 -18 0
713 18 0
-714 -17 0
714 17 0
-715 -19 0
715 19 0
-716 -72 0
716 72 0
-717 -20 0
717 20 0
-718 -75 0
718 75 0
-719 -22 0
719 22 0
-720 -21 0
720 21 0
-721 -78 0
721 78 0
-722 -25 0
722 25 0
-723 -81 0
723 81 0
-724 -84 0
724 84 0
-725 -87 0
725 87 0
-726 -28 0
726 28 0
-727 -90 0
727 90 0
-728 -93 0
728 93 0
-729 -30 0
729 30 0
-730 -96 0
730 96 0
-731 -32 0
731 32 0
-732 -33 0
732 33 0
-733 -99 0
733 99 0
-734 -34 0
734 34 0
-735 -23 0
735 23 0
-736 -102 0
736 102 0
-737 -105 0
737 105 0
-738 -108 0
738 108 0
-739 -36 0
739 36 0
-740 -111 0
740 111 0
-741 -38 0
741 38 0
-742 -114 0
742 114 0
-743 -13 0
743 13 0
-744 -117 0
744 117 0
-745 -39 0
745 39 0
-746 -120 0
746 120 0
-747 -41 0
747 41 0
-748 -123 0
748 123 0
-749 -126 0
749 126 0
-750 -129 0
750 129 0
-751 -132 0
751 132 0
-752 -43 0
752 43 0
-753 -42 0
753 42 0
-754 -135 0
754 135 0
-755 -24 0
755 24 0
-756 -138 0
756 138 0
-757 -141 0
757 141 0
-758 -144 0
758 144 0
-759 -147 0
759 147 0
-760 -150 0
760 150 0
-761 -153 0
761 153 0
-762 -27 0
762 27 0
-763 -156 0
763 156 0
-764 -8 0
764 8 0
-765 -159 0
765 159 0
-766 -40 0
766 40 0
-767 -162 0
767 162 0
-768 -165 0
768 165 0
-769 -168 0
769 168 0
-770 -48 0
770 48 0
-771 -47 0
771 47 0
-772 -171 0
772 171 0
-773 -6 0
773 6 0
-774 -49 0
774 49 0
-775 -174 0
775 174 0
-776 -177 0
776 177 0
-777 -180 0
777 180 0
-778 -1 0
778 1 0
-779 -183 0
779 183 0
-780 -186 0
780 186 0
-781 -189 0
781 189 0
-782 -192 0
782 192 0
-783 -195 0
783 195 0
-784 -37 0
784 37 0
-785 -198 0
785 198 0
-786 -2 0
786 2 0
-787 -201 0
787 201 0
-788 -204 0
788 204 0
-789 -207 0
789 207 0
-790 -210 0
790 210 0
-791 -50 0
791 50 0
-792 -35 0
792 35 0
-793 -213 0
793 213 0
-794 -216 0
794 216 0
-795 -219 0
795 219 0
-796 -45 0
796 45 0
-797 -222 0
797 222 0
-798 -225 0
798 225 0
-799 -227 0
799 227 0
-800 -230 0
800 230 0
-801 -233 0
801 233 0
-802 -26 0
802 26 0
-803 -236 0
803 236 0
-804 -239 0
804 239 0
-805 -242 0
805 242 0
-806 -29 0
806 29 0
-807 -245 0
807 245 0
-808 -248 0
808 248 0
-809 -251 0
809 251 0
-810 -254 0
810 254 0
-811 -46 0
811 46 0
-812 -44 0
812 44 0
-813 -257 0
813 257 0
-814 -260 0
814 260 0
-815 -263 0
815 263 0
-816 -266 0
816 266 0
-817 -269 0
817 269 0
-818 -272 0
818 272 0
-819 -275 0
819 275 0
-820 -278 0
820 278 0
-821 -281 0
821 281 0
-822 -284 0
822 284 0
-823 -287 0
823 287 0
-824 -290 0
824 290 0
-825 -293 0
825 293 0
-826 -296 0
826 296 0
-827 -299 0
827 299 0
-828 -302 0
828 302 0
-829 -305 0
829 305 0
-830 -308 0
830 308 0
-831 -310 0
831 310 0
-832 -313 0
832 313 0
-833 -316 0
833 316 0
-834 -319 0
834 319 0
-835 -322 0
835 322 0
-836 -325 0
836 325 0
-837 -328 0
837 328 0
-838 -331 0
838 331 0
-839 -334 0
839 334 0
-840 -337 0
840 337 0
-841 -340 0
841 340 0
-842 -343 0
842 343 0
-843 -346 0
843 346 0
-844 -349 0
844 349 0
-845 -352 0
845 352 0
-846 -355 0
846 355 0
-847 -358 0
847 358 0
-848 -361 0
848 361 0
-849 -31 0
849 31 0
-850 -364 0
850 364 0
-851 -367 0
851 367 0
-852 -370 0
852 370 0
-853 -373 0
853 373 0
-854 -376 0
854 376 0
-855 -379 0
855 379 0
-856 -382 0
856 382 0
-857 -385 0
857 385 0
-858 -388 0
858 388 0
-859 -391 0
859 391 0
-860 -394 0
860 394 0
-861 -397 0
861 397 0
-862 -400 0
862 400 0
-863 -403 0
863 403 0
-864 -406 0
864 406 0
-865 -409 0
865 409 0
-866 -412 0
866 412 0
-867 -414 0
867 414 0
-868 -417 0
868 417 0
-869 -420 0
869 420 0
-870 -423 0
870 423 0
-871 -426 0
871 426 0
-872 -429 0
872 429 0
-873 -432 0
873 432 0
-874 -435 0
874 435 0
-875 -438 0
875 438 0
-876 -441 0
876 441 0
-877 -444 0
877 444 0
-878 -447 0
878 447 0
-879 -450 0
879 450 0
-880 -453 0
880 453 0
-881 -456 0
881 456 0
-882 -459 0
882 459 0
-883 -462 0
883 462 0
-884 -465 0
884 465 0
-885 -468 0
885 468 0
-886 -471 0
886 471 0
-887 -474 0
887 474 0
-888 -476 0
888 476 0
-889 -479 0
889 479 0
-890 -482 0
890 482 0
-891 -485 0
891 485 0
-892 -488 0
892 488 0
-893 -491 0
893 491 0
-894 -494 0
894 494 0
-895 -497 0
895 497 0
-896 -500 0
896 500 0
-897 -503 0
897 503 0
-898 -506 0
898 506 0
-899 -509 0
899 509 0
-900 -512 0
900 512 0
-901 -515 0
901 515 0
-902 -518 0
902 518 0
-903 -521 0
903 521 0
-904 -524 0
904 524 0
-905 -527 0
905 527 0
-906 -530 0
906 530 0
-907 -533 0
907 533 0
-908 -536 0
908 536 0
-909 -539 0
909 539 0
-910 -542 0
910 542 0
-911 -545 0
911 545 0
-912 -548 0
912 548 0
-913 -551 0
913 551 0
-914 -554 0
914 554 0
-915 -557 0
915 557 0
-916 -559 0
916 559 0
-917 -562 0
917 562 0
-918 -565 0
918 565 0
-919 -568 0
919 568 0
-920 -571 0
920 571 0
-921 -574 0
921 574 0
-922 -577 0
922 577 0
-923 -580 0
923 580 0
-924 -583 0
924 583 0
-925 -586 0
925 586 0
-926 -589 0
926 589 0
-927 -592 0
927 592 0
-928 -595 0
928 595 0
-929 -598 0
929 598 0
-930 -601 0
930 601 0
-931 -604 0
931 604 0
-932 -607 0
932 607 0
-933 -610 0
933 610 0
-934 -613 0
934 613 0
-935 -615 0
935 615 0
-936 -618 0
936 618 0
-937 -621 0
937 621 0
-938 -624 0
938 624 0
-939 -627 0
939 627 0
-940 -629 0
940 629 0
-941 -632 0
941 632 0
-942 -635 0
942 635 0
-943 -638 0
943 638 0
-944 -641 0
944 641 0
-945 -644 0
945 644 0
-946 -646 0
946 646 0
-947 -649 0
947 649 0
-948 -652 0
948 652 0
-949 -655 0
949 655 0
-950 -658 0
950 658 0
-951 -661 0
951 661 0
-952 -664 0
952 664 0
-953 -667 0
953 667 0
-954 -670 0
954 670 0
-955 -673 0
955 673 0
-956 -676 0
956 676 0
-957 -679 0
957 679 0
-958 -681 0
958 681 0
-959 -684 0
959 684 0
-960 -687 0
960 687 0
-961 -690 0
961 690 0
-962 -693 0
962 693 0
694 0
